(set-logic QF_BV)
(declare-fun _substvar_158_ () (_ BitVec 1024))
(assert (and true true true true true true true true true true true true true (or false false false (not (= ((_ extract 959 896) _substvar_158_) ((_ extract 895 832) _substvar_158_)))) true true true true true true true true true true true true true true true))
(check-sat)
(exit)
